c FILE /home/rafael/Documents/HappySet/MIHS/inputs/happygen/output/graph_d_regular_k5_p0.3_v100_20241127_084045.txt
c SOURCE This is a d-regular graph formed for the happy graph colouring problem.
c DESCRIPTION It was generated using the problem generator of Rhyd Lewis
c
c GRAPH STATS
c Seed                             = 1179093177
c Number of Nodes                  = 100
c Number of colours k              = 5
c Number of pre-assignments        = 30
c Degree of all vertices           = 6
c Density                          = 0.0606061
c 
c The degrees of nodes 1 to 100, respectively, are as follows 
c [6, 6, 6, 6, 6, 6, 6, 6, 6, 6, 6, 6, 6, 6, 6, 6, 6, 6, 6, 6, 6, 6, 6, 6, 6, 6, 
c  6, 6, 6, 6, 6, 6, 6, 6, 6, 6, 6, 6, 6, 6, 6, 6, 6, 6, 6, 6, 6, 6, 6, 6, 6, 
c  6, 6, 6, 6, 6, 6, 6, 6, 6, 6, 6, 6, 6, 6, 6, 6, 6, 6, 6, 6, 6, 6, 6, 6, 6, 
c  6, 6, 6, 6, 6, 6, 6, 6, 6, 6, 6, 6, 6, 6, 6, 6, 6, 6, 6, 6, 6, 6, 6, 6] 
c  
p edge 100 300 5
e 1 2
e 1 3
e 1 38
e 1 48
e 1 60
e 1 70
e 2 7
e 2 81
e 2 92
e 2 97
e 2 100
e 3 6
e 3 13
e 3 43
e 3 51
e 3 52
e 4 7
e 4 16
e 4 23
e 4 27
e 4 56
e 4 90
e 5 22
e 5 29
e 5 36
e 5 37
e 5 81
e 5 89
e 6 16
e 6 17
e 6 24
e 6 31
e 6 33
e 7 30
e 7 39
e 7 61
e 7 72
e 8 19
e 8 25
e 8 36
e 8 53
e 8 55
e 8 99
e 9 15
e 9 17
e 9 21
e 9 40
e 9 42
e 9 52
e 10 16
e 10 29
e 10 46
e 10 54
e 10 58
e 10 69
e 11 12
e 11 14
e 11 16
e 11 48
e 11 86
e 11 92
e 12 15
e 12 33
e 12 39
e 12 40
e 12 79
e 13 14
e 13 15
e 13 17
e 13 37
e 13 89
e 14 35
e 14 90
e 14 93
e 14 94
e 15 41
e 15 48
e 15 65
e 16 83
e 16 92
e 17 37
e 17 47
e 17 64
e 18 49
e 18 53
e 18 64
e 18 65
e 18 95
e 18 98
e 19 37
e 19 45
e 19 88
e 19 95
e 19 97
e 20 24
e 20 44
e 20 50
e 20 59
e 20 65
e 20 66
e 21 22
e 21 48
e 21 51
e 21 59
e 21 71
e 22 43
e 22 61
e 22 87
e 22 98
e 23 38
e 23 77
e 23 78
e 23 82
e 23 99
e 24 27
e 24 35
e 24 62
e 24 78
e 25 48
e 25 52
e 25 68
e 25 71
e 25 85
e 26 34
e 26 57
e 26 63
e 26 90
e 26 92
e 26 100
e 27 56
e 27 67
e 27 76
e 27 100
e 28 35
e 28 45
e 28 59
e 28 83
e 28 90
e 28 94
e 29 42
e 29 47
e 29 62
e 29 82
e 30 35
e 30 53
e 30 74
e 30 82
e 30 89
e 31 52
e 31 73
e 31 81
e 31 85
e 31 91
e 32 34
e 32 56
e 32 66
e 32 70
e 32 71
e 32 75
e 33 49
e 33 59
e 33 67
e 33 93
e 34 74
e 34 87
e 34 93
e 34 94
e 35 73
e 35 91
e 36 60
e 36 67
e 36 70
e 36 80
e 37 84
e 37 95
e 38 51
e 38 60
e 38 63
e 38 71
e 39 59
e 39 77
e 39 94
e 39 99
e 40 49
e 40 83
e 40 87
e 40 92
e 41 46
e 41 47
e 41 53
e 41 63
e 41 97
e 42 45
e 42 64
e 42 66
e 42 67
e 43 70
e 43 84
e 43 88
e 43 97
e 44 50
e 44 54
e 44 64
e 44 72
e 44 85
e 45 55
e 45 87
e 45 96
e 46 48
e 46 64
e 46 72
e 46 83
e 47 59
e 47 74
e 47 96
e 49 57
e 49 77
e 49 88
e 50 56
e 50 62
e 50 78
e 50 100
e 51 53
e 51 81
e 51 96
e 52 73
e 52 76
e 53 73
e 54 67
e 54 96
e 54 97
e 54 99
e 55 56
e 55 75
e 55 84
e 55 86
e 56 67
e 57 86
e 57 91
e 57 95
e 57 98
e 58 60
e 58 61
e 58 71
e 58 80
e 58 90
e 60 71
e 60 74
e 61 68
e 61 72
e 61 94
e 62 68
e 62 75
e 62 79
e 63 86
e 63 90
e 63 91
e 64 78
e 65 81
e 65 84
e 65 87
e 66 70
e 66 72
e 66 99
e 68 74
e 68 75
e 68 86
e 69 76
e 69 77
e 69 79
e 69 85
e 69 88
e 70 81
e 72 97
e 73 78
e 73 91
e 74 98
e 75 84
e 75 93
e 76 79
e 76 89
e 76 100
e 77 87
e 77 92
e 78 80
e 79 85
e 79 91
e 80 85
e 80 89
e 80 96
e 82 88
e 82 93
e 82 99
e 83 93
e 83 98
e 84 100
e 86 94
e 88 89
e 95 96
e 95 98
n 2 4
n 6 3
n 7 4
n 9 2
n 12 2
n 15 2
n 18 4
n 19 1
n 20 3
n 22 1
n 29 5
n 32 3
n 36 3
n 43 1
n 45 1
n 51 4
n 55 1
n 57 2
n 58 3
n 62 5
n 63 3
n 64 4
n 66 3
n 67 3
n 71 3
n 74 1
n 82 5
n 85 2
n 87 1
n 93 5
